p tw 25 63
0 1
0 9
0 13
0 12
0 5
0 10
0 24
1 20
1 17
1 6
1 7
2 3
2 11
2 17
2 20
2 22
3 7
3 11
3 6
4 5
4 14
4 20
4 7
4 19
4 21
5 11
5 16
5 17
5 7
5 21
6 7
6 8
6 10
6 18
6 13
7 12
8 18
8 19
8 13
9 12
9 20
10 18
10 21
11 19
11 17
11 16
11 23
11 18
11 12
12 23
14 15
14 16
15 21
15 24
15 17
16 21
16 19
16 24
18 20
18 24
18 23
19 23
20 22
